c
c start with comments
c
p cnf 37 26
-2 -9 -29 0
-26 -35 33 36 0
-36 -12 -21 9 34 0
-27 -35 -34 -2 0
-36 14 23 -22 -20 0
-6 30 25 0
29 -1 0
-28 -5 0
20 1 0
-8 16 -25 0
37 -34 -12 -35 0
27 -10 37 4 13 0
-4 -17 35 0
38 -26 9 15 4 -11 0
2 21 -33 0
-31 -37 0
24 -21 4 -9 25 0
-32 -30 -30 0
9 32 36 -17 0
7 22 0
18 -29 35 0
2 -27 14 0
28 -16 -21 2 0
10 2 17 0
-3 -35 27 36 0
33 -11 27 0